experiment/data/hgs-res/Vrp-Set-E-n23/Vrp-Set-E-n23-hgs/0.hgs1.vrp
NAME : 0
COMMENT : CVRP Instance
TYPE : CVRP
DIMENSION : 23
EDGE_WEIGHT_TYPE : EUC_2D
CAPACITY : 4500
NODE_COORD_SECTION
1	266.0	235.0
2	295.0	272.0
3	301.0	258.0
4	309.0	260.0
5	217.0	274.0
6	218.0	278.0
7	282.0	267.0
8	242.0	249.0
9	230.0	262.0
10	249.0	268.0
11	256.0	267.0
12	265.0	257.0
13	267.0	242.0
14	259.0	265.0
15	315.0	233.0
16	329.0	252.0
17	318.0	252.0
18	329.0	224.0
19	267.0	213.0
20	275.0	192.0
21	303.0	201.0
22	208.0	217.0
23	326.0	181.0
DEMAND_SECTION
1	0
2	125
3	84
4	60
5	500
6	300
7	175
8	350
9	150
10	1100
11	4100
12	225
13	300
14	250
15	500
16	150
17	100
18	250
19	120
20	600
21	500
22	175
23	75
DEPOT_SECTION
1
-1
EOF
