experiment/data/hgs-res/Vrp-Set-E-n23/Vrp-Set-E-n23-hgs/0.hgs1.tour
Route #1: 12 11 6 1 2 3 16 15 14 17 22 20 19 18
Route #2: 13 10
Route #3: 7 9 8 5 4 21
Cost 568.563
